language ESSENCE' 1.0
letting AssignmentMatrix be [[0, 0, 1, 1, 0, 0, 0, 0, 0, 1, 1, 1, 1, 1, 1, 0, 1, 0, 0, 0, 1, 0, 0], 
[0, 0, 1, 0, 1, 0, 0, 1, 1, 0, 0, 0, 0, 0, 0, 0, 0, 1, 0, 1, 0, 0, 1], 
[0, 0, 0, 0, 0, 0, 0, 0, 0, 0, 0, 0, 0, 0, 0, 0, 0, 0, 0, 0, 0, 0, 0], 
[0, 1, 0, 0, 0, 1, 1, 0, 0, 0, 0, 0, 0, 0, 0, 0, 0, 0, 1, 0, 0, 0, 0], 
[1, 0, 0, 0, 0, 0, 0, 0, 0, 0, 0, 0, 0, 0, 0, 1, 0, 0, 0, 0, 0, 0, 0]]
letting CPU be [4, 4, 4, 2, 4, 4, 4, 2, 2, 2, 2, 2, 2, 2, 2, 4, 2, 4, 4, 2, 2, 16, 2]
letting Memory be [7500, 7500, 15000, 3750, 7500, 7500, 7500, 3750, 3750, 3750, 3750, 3750, 3750, 3750, 3750, 7500, 3750, 7500, 7500, 3750, 3750, 488002, 3750]
letting Price be [210, 210, 350, 116, 210, 210, 210, 116, 116, 116, 116, 116, 116, 116, 116, 210, 116, 210, 210, 116, 116, 17, 116]
letting Storage be [2000, 2000, 4000, 2000, 2000, 2000, 2000, 2000, 2000, 2000, 2000, 2000, 2000, 2000, 2000, 2000, 2000, 2000, 2000, 2000, 2000, 12002, 2000]
letting VMType be [341, 341, 316, 433, 341, 341, 341, 433, 433, 433, 433, 433, 433, 433, 433, 341, 433, 341, 341, 433, 433, 1, 433]
